n = 12;
m = 5;

dc = array2d(1..12, 1..5, [
  6, 9, 12, 7, 8,
  5, 8, 6, 10, 9,
  8, 7, 9, 6, 11,
  7, 5, 6, 9, 10,
  9, 6, 8, 12, 7,
  6, 5, 9, 11, 8,
  8, 7, 5, 6, 10,
  7, 6, 9, 8, 6,
  5, 9, 10, 7, 11,
  9, 6, 7, 8, 9,
  6, 10, 8, 7, 5,
  8, 6, 9, 10, 6
]);

f = [20, 25, 18, 22, 19];
L = [3, 3, 3, 3, 3];
Dmax = 9;
